p cnf 471 1767
1 -2 0
2 -1 0
3 -4 0
4 -3 0
5 -6 0
6 -5 0
7 -8 0
8 -7 0
9 -10 0
10 -9 0
11 -12 0
12 -11 0
13 -14 0
14 -13 0
15 -16 0
16 -15 0
17 -18 0
18 -17 0
19 -20 0
20 -19 0
21 -22 0
22 -21 0
23 -24 0
24 -23 0
25 -26 0
26 -25 0
27 -28 0
28 -27 0
29 -30 0
30 -29 0
31 -32 0
32 -31 0
33 -34 0
34 -33 0
35 -36 0
36 -35 0
37 -38 0
38 -37 0
39 -40 0
40 -39 0
41 -42 0
42 -41 0
43 -44 0
44 -43 0
45 -46 0
46 -45 0
47 -48 0
48 -47 0
49 -50 0
50 -49 0
51 -52 0
52 -51 0
53 -54 0
54 -53 0
55 -56 0
56 -55 0
57 -58 0
58 -57 0
59 -60 0
60 -59 0
61 -62 0
62 -61 0
63 -64 0
64 -63 0
65 -66 0
66 -65 0
67 -68 0
68 -67 0
69 -70 0
70 -69 0
71 -72 0
72 -71 0
73 -74 0
74 -73 0
75 -76 0
76 -75 0
77 -78 0
78 -77 0
79 -80 0
80 -79 0
81 -82 0
82 -81 0
83 -84 0
84 -83 0
85 -86 0
86 -85 0
87 -88 0
88 -87 0
89 -90 0
90 -89 0
91 -92 0
92 -91 0
93 -94 0
94 -93 0
95 -96 0
96 -95 0
97 -98 0
98 -97 0
99 -100 0
100 -99 0
101 -102 0
102 -101 0
103 -104 0
104 -103 0
105 -106 0
106 -105 0
107 -108 0
108 -107 0
109 -110 0
110 -109 0
111 -112 0
112 -111 0
113 -114 0
114 -113 0
115 -116 0
116 -115 0
117 -118 0
118 -117 0
119 -120 0
120 -119 0
121 -122 0
122 -121 0
123 -124 0
124 -123 0
125 -126 0
126 -125 0
127 -128 0
128 -127 0
129 -130 0
130 -129 0
131 -132 0
132 -131 0
133 -134 0
134 -133 0
135 -136 0
136 -135 0
137 -138 0
138 -137 0
139 -140 0
140 -139 0
141 -142 0
142 -141 0
143 -144 0
144 -143 0
145 -146 0
146 -145 0
147 -148 0
148 -147 0
149 -150 0
150 -149 0
151 -152 0
152 -151 0
153 -154 0
154 -153 0
155 -156 0
156 -155 0
157 -158 0
158 -157 0
159 -160 0
160 -159 0
161 -162 0
162 -161 0
163 -164 0
164 -163 0
165 -166 0
166 -165 0
167 -168 0
168 -167 0
169 -170 0
170 -169 0
171 -172 0
172 -171 0
173 -174 0
174 -173 0
175 -176 0
176 -175 0
177 -178 0
178 -177 0
179 -180 0
180 -179 0
181 -182 0
182 -181 0
183 -184 0
184 -183 0
185 -186 0
186 -185 0
187 -188 0
188 -187 0
189 -190 0
190 -189 0
191 -192 0
192 -191 0
193 -194 0
194 -193 0
195 -196 0
196 -195 0
197 -198 0
198 -197 0
199 -200 0
200 -199 0
201 -202 0
202 -201 0
203 -204 0
204 -203 0
205 -206 0
206 -205 0
13 -11 -207 0
11 -13 -207 0
-13 -11 207 0
11 13 207 0
-207 0
-99 131 -208 0
-131 99 -208 0
-131 -99 208 0
131 99 208 0
-97 129 -209 0
97 -129 -209 0
-97 -129 209 0
97 129 209 0
-103 135 -210 0
103 -135 -210 0
-103 -135 210 0
103 135 210 0
133 -101 -211 0
101 -133 -211 0
-101 -133 211 0
133 101 211 0
77 -45 -212 0
-77 45 -212 0
-77 -45 212 0
77 45 212 0
65 -33 -213 0
-65 33 -213 0
-65 -33 213 0
65 33 213 0
69 -37 -214 0
-69 37 -214 0
-37 -69 214 0
69 37 214 0
-35 67 -215 0
-67 35 -215 0
-35 -67 215 0
67 35 215 0
195 -163 -216 0
-195 163 -216 0
-163 -195 216 0
195 163 216 0
199 -167 -217 0
-199 167 -217 0
-199 -167 217 0
199 167 217 0
-165 197 -218 0
-197 165 -218 0
-165 -197 218 0
197 165 218 0
179 -147 -219 0
147 -179 -219 0
-147 -179 219 0
147 179 219 0
-145 177 -220 0
145 -177 -220 0
-145 -177 220 0
145 177 220 0
-89 121 -221 0
89 -121 -221 0
-89 -121 221 0
89 121 221 0
119 -87 -222 0
-119 87 -222 0
-119 -87 222 0
87 119 222 0
137 -105 -223 0
105 -137 -223 0
-137 -105 223 0
105 137 223 0
-109 141 -224 0
-141 109 -224 0
-109 -141 224 0
141 109 224 0
139 -107 -225 0
107 -139 -225 0
-107 -139 225 0
139 107 225 0
-39 71 -226 0
39 -71 -226 0
-39 -71 226 0
71 39 226 0
75 -43 -227 0
-75 43 -227 0
-75 -43 227 0
75 43 227 0
73 -41 -228 0
41 -73 -228 0
-73 -41 228 0
73 41 228 0
-91 123 -229 0
-123 91 -229 0
-123 -91 229 0
91 123 229 0
-95 127 -230 0
-127 95 -230 0
-127 -95 230 0
95 127 230 0
125 -93 -231 0
-125 93 -231 0
-125 -93 231 0
125 93 231 0
189 -157 -232 0
157 -189 -232 0
-189 -157 232 0
157 189 232 0
187 -155 -233 0
-187 155 -233 0
-187 -155 233 0
155 187 233 0
59 -27 -234 0
-59 27 -234 0
-59 -27 234 0
59 27 234 0
57 -25 -235 0
-57 25 -235 0
-25 -57 235 0
57 25 235 0
-31 63 -236 0
31 -63 -236 0
-63 -31 236 0
31 63 236 0
61 -29 -237 0
29 -61 -237 0
-61 -29 237 0
61 29 237 0
-143 175 -238 0
143 -175 -238 0
-143 -175 238 0
143 175 238 0
-149 181 -239 0
149 -181 -239 0
-149 -181 239 0
149 181 239 0
-153 185 -240 0
153 -185 -240 0
-153 -185 240 0
153 185 240 0
183 -151 -241 0
151 -183 -241 0
-183 -151 241 0
151 183 241 0
-171 203 -242 0
-203 171 -242 0
-203 -171 242 0
203 171 242 0
201 -169 -243 0
-201 169 -243 0
-201 -169 243 0
201 169 243 0
-173 205 -244 0
-205 173 -244 0
-173 -205 244 0
205 173 244 0
193 -161 -245 0
161 -193 -245 0
-193 -161 245 0
193 161 245 0
191 -159 -246 0
159 -191 -246 0
-159 -191 246 0
191 159 246 0
51 -19 -247 0
-51 19 -247 0
-51 -19 247 0
51 19 247 0
-17 49 -248 0
-49 17 -248 0
-17 -49 248 0
49 17 248 0
55 -23 -249 0
23 -55 -249 0
-55 -23 249 0
55 23 249 0
53 -21 -250 0
21 -53 -250 0
-53 -21 250 0
53 21 250 0
111 -79 -251 0
-111 79 -251 0
-111 -79 251 0
111 79 251 0
117 -85 -252 0
85 -117 -252 0
-117 -85 252 0
85 117 252 0
-83 115 -253 0
-115 83 -253 0
-83 -115 253 0
83 115 253 0
113 -81 -254 0
81 -113 -254 0
-113 -81 254 0
81 113 254 0
-15 47 -255 0
15 -47 -255 0
-15 -47 255 0
47 15 255 0
255 256 0
254 256 0
253 256 0
252 256 0
251 256 0
250 256 0
249 256 0
248 256 0
247 256 0
246 256 0
245 256 0
244 256 0
243 256 0
242 256 0
241 256 0
240 256 0
239 256 0
238 256 0
237 256 0
236 256 0
235 256 0
234 256 0
233 256 0
232 256 0
231 256 0
230 256 0
229 256 0
228 256 0
227 256 0
226 256 0
225 256 0
224 256 0
223 256 0
222 256 0
221 256 0
220 256 0
219 256 0
218 256 0
217 256 0
216 256 0
215 256 0
214 256 0
213 256 0
212 256 0
211 256 0
210 256 0
209 256 0
208 256 0
-208 -209 -210 -211 -212 -213 -214 -215 -216 -217 -218 -219 -220 -221 -222 -223 -224 -225 -226 -227 -228 -229 -230 -231 -232 -233 -234 -235 -236 -237 -238 -239 -240 -241 -242 -243 -244 -245 -246 -247 -248 -249 -250 -251 -252 -253 -254 -255 -256 0
145 257 0
143 257 0
149 257 0
147 257 0
-145 -143 -149 -147 -257 0
151 -257 -258 0
-151 257 -258 0
258 -151 -257 0
151 257 258 0
-79 259 0
-81 259 0
-83 259 0
-85 259 0
-87 259 0
-89 259 0
-91 259 0
-93 259 0
-95 259 0
-97 259 0
-99 259 0
-101 259 0
-103 259 0
-105 259 0
-107 259 0
-109 259 0
79 81 83 85 87 89 91 93 95 97 99 101 103 105 107 109 -259 0
258 -259 -260 0
151 259 -260 0
-258 -259 260 0
-151 259 260 0
151 258 -260 0
-151 -258 260 0
183 -260 -261 0
-183 260 -261 0
261 -183 -260 0
183 260 261 0
145 262 0
143 262 0
153 262 0
151 262 0
149 262 0
147 262 0
-145 -143 -153 -151 -149 -147 -262 0
155 -262 -263 0
-155 262 -263 0
263 -155 -262 0
155 262 263 0
-259 263 -264 0
155 259 -264 0
-259 -263 264 0
-155 259 264 0
155 263 -264 0
-155 -263 264 0
187 -264 -265 0
-187 264 -265 0
265 -187 -264 0
187 264 265 0
145 266 0
143 266 0
151 266 0
149 266 0
147 266 0
-145 -143 -151 -149 -147 -266 0
153 -266 -267 0
-153 266 -267 0
267 -153 -266 0
153 266 267 0
-259 267 -268 0
153 259 -268 0
-259 -267 268 0
-153 259 268 0
153 267 -268 0
-153 -267 268 0
185 -268 -269 0
-185 268 -269 0
269 -185 -268 0
185 268 269 0
145 270 0
143 270 0
153 270 0
151 270 0
149 270 0
147 270 0
155 270 0
-145 -143 -153 -151 -149 -147 -155 -270 0
157 -270 -271 0
-157 270 -271 0
271 -157 -270 0
157 270 271 0
-259 271 -272 0
157 259 -272 0
-259 -271 272 0
-157 259 272 0
157 271 -272 0
-157 -271 272 0
189 -272 -273 0
-189 272 -273 0
273 -189 -272 0
189 272 273 0
145 274 0
143 274 0
153 274 0
151 274 0
149 274 0
147 274 0
159 274 0
157 274 0
155 274 0
-145 -143 -153 -151 -149 -147 -159 -157 -155 -274 0
161 -274 -275 0
-161 274 -275 0
275 -161 -274 0
161 274 275 0
-259 275 -276 0
161 259 -276 0
-259 -275 276 0
-161 259 276 0
161 275 -276 0
-161 -275 276 0
193 -276 -277 0
-193 276 -277 0
277 -193 -276 0
193 276 277 0
145 278 0
143 278 0
153 278 0
151 278 0
149 278 0
147 278 0
157 278 0
155 278 0
-145 -143 -153 -151 -149 -147 -157 -155 -278 0
159 -278 -279 0
-159 278 -279 0
279 -159 -278 0
159 278 279 0
-259 279 -280 0
159 259 -280 0
-259 -279 280 0
-159 259 280 0
159 279 -280 0
-159 -279 280 0
191 -280 -281 0
-191 280 -281 0
281 -191 -280 0
191 280 281 0
145 282 0
143 282 0
153 282 0
151 282 0
149 282 0
147 282 0
159 282 0
157 282 0
155 282 0
161 282 0
-145 -143 -153 -151 -149 -147 -159 -157 -155 -161 -282 0
163 -282 -283 0
-163 282 -283 0
283 -163 -282 0
163 282 283 0
-259 283 -284 0
163 259 -284 0
-259 -283 284 0
-163 259 284 0
163 283 -284 0
-163 -283 284 0
195 -284 -285 0
-195 284 -285 0
285 -195 -284 0
195 284 285 0
145 286 0
143 286 0
153 286 0
163 286 0
151 286 0
165 286 0
149 286 0
147 286 0
159 286 0
157 286 0
155 286 0
161 286 0
-145 -143 -153 -163 -151 -165 -149 -147 -159 -157 -155 -161 -286 0
167 -286 -287 0
-167 286 -287 0
287 -167 -286 0
167 286 287 0
-259 287 -288 0
167 259 -288 0
-259 -287 288 0
-167 259 288 0
167 287 -288 0
-167 -287 288 0
199 -288 -289 0
-199 288 -289 0
289 -199 -288 0
199 288 289 0
145 290 0
143 290 0
153 290 0
163 290 0
151 290 0
149 290 0
147 290 0
159 290 0
157 290 0
155 290 0
161 290 0
-145 -143 -153 -163 -151 -149 -147 -159 -157 -155 -161 -290 0
165 -290 -291 0
-165 290 -291 0
291 -165 -290 0
165 290 291 0
-259 291 -292 0
165 259 -292 0
-259 -291 292 0
-165 259 292 0
165 291 -292 0
-165 -291 292 0
197 -292 -293 0
-197 292 -293 0
293 -197 -292 0
197 292 293 0
145 294 0
143 294 0
153 294 0
163 294 0
151 294 0
165 294 0
149 294 0
147 294 0
159 294 0
157 294 0
155 294 0
161 294 0
167 294 0
-145 -143 -153 -163 -151 -165 -149 -147 -159 -157 -155 -161 -167 -294 0
169 -294 -295 0
-169 294 -295 0
295 -169 -294 0
169 294 295 0
-259 295 -296 0
169 259 -296 0
-259 -295 296 0
-169 259 296 0
169 295 -296 0
-169 -295 296 0
201 -296 -297 0
-201 296 -297 0
297 -201 -296 0
201 296 297 0
145 298 0
143 298 0
153 298 0
163 298 0
151 298 0
165 298 0
149 298 0
147 298 0
171 298 0
159 298 0
169 298 0
157 298 0
155 298 0
161 298 0
167 298 0
-145 -143 -153 -163 -151 -165 -149 -147 -171 -159 -169 -157 -155 -161 -167 -298 0
173 -298 -299 0
-173 298 -299 0
299 -173 -298 0
173 298 299 0
-259 299 -300 0
173 259 -300 0
-259 -299 300 0
-173 259 300 0
173 299 -300 0
-173 -299 300 0
205 -300 -301 0
-205 300 -301 0
301 -205 -300 0
205 300 301 0
145 302 0
143 302 0
153 302 0
163 302 0
151 302 0
165 302 0
149 302 0
147 302 0
159 302 0
169 302 0
157 302 0
155 302 0
161 302 0
167 302 0
-145 -143 -153 -163 -151 -165 -149 -147 -159 -169 -157 -155 -161 -167 -302 0
171 -302 -303 0
-171 302 -303 0
303 -171 -302 0
171 302 303 0
-259 303 -304 0
171 259 -304 0
-259 -303 304 0
-171 259 304 0
171 303 -304 0
-171 -303 304 0
203 -304 -305 0
-203 304 -305 0
305 -203 -304 0
203 304 305 0
145 306 0
143 306 0
147 306 0
-145 -143 -147 -306 0
149 -306 -307 0
-149 306 -307 0
307 -149 -306 0
149 306 307 0
-259 307 -308 0
149 259 -308 0
-259 -307 308 0
-149 259 308 0
149 307 -308 0
-149 -307 308 0
181 -308 -309 0
-181 308 -309 0
309 -181 -308 0
181 308 309 0
1 310 0
259 310 0
-1 -259 -310 0
310 311 0
85 311 0
-85 -310 -311 0
-119 311 -312 0
119 -311 -312 0
-119 -311 312 0
119 311 312 0
87 313 0
310 313 0
-87 -310 -313 0
-121 313 -314 0
121 -313 -314 0
-121 -313 314 0
121 313 314 0
89 315 0
310 315 0
-89 -310 -315 0
-123 315 -316 0
123 -315 -316 0
-123 -315 316 0
123 315 316 0
103 317 0
310 317 0
-103 -310 -317 0
-137 317 -318 0
137 -317 -318 0
-137 -317 318 0
137 317 318 0
310 319 0
105 319 0
-105 -310 -319 0
-139 319 -320 0
139 -319 -320 0
-139 -319 320 0
139 319 320 0
83 321 0
310 321 0
-83 -310 -321 0
-117 321 -322 0
117 -321 -322 0
-117 -321 322 0
117 321 322 0
310 323 0
101 323 0
-101 -310 -323 0
-135 323 -324 0
135 -323 -324 0
-135 -323 324 0
135 323 324 0
310 325 0
107 325 0
-107 -310 -325 0
-141 325 -326 0
141 -325 -326 0
-141 -325 326 0
141 325 326 0
310 327 0
81 327 0
-81 -310 -327 0
-115 327 -328 0
115 -327 -328 0
-115 -327 328 0
115 327 328 0
310 329 0
91 329 0
-91 -310 -329 0
-125 329 -330 0
125 -329 -330 0
-125 -329 330 0
125 329 330 0
95 331 0
310 331 0
-95 -310 -331 0
-129 331 -332 0
129 -331 -332 0
-129 -331 332 0
129 331 332 0
97 333 0
310 333 0
-97 -310 -333 0
-131 333 -334 0
131 -333 -334 0
-131 -333 334 0
131 333 334 0
99 335 0
310 335 0
-99 -310 -335 0
-133 335 -336 0
133 -335 -336 0
-133 -335 336 0
133 335 336 0
310 337 0
93 337 0
-93 -310 -337 0
-127 337 -338 0
127 -337 -338 0
-127 -337 338 0
127 337 338 0
79 339 0
310 339 0
-79 -310 -339 0
-113 339 -340 0
113 -339 -340 0
-113 -339 340 0
113 339 340 0
-17 -81 341 0
-17 -79 -15 341 0
-79 -15 -81 341 0
79 17 -341 0
81 79 17 -341 0
81 79 -341 0
79 17 15 -341 0
81 79 15 -341 0
17 15 -341 0
81 17 15 -341 0
81 15 -341 0
81 17 -341 0
17 79 81 -341 0
19 83 -342 0
83 341 -342 0
19 341 -342 0
-83 -19 342 0
342 -83 -341 0
342 -19 -341 0
85 21 -343 0
21 342 -343 0
85 342 -343 0
343 -21 -85 0
343 -21 -342 0
343 -85 -342 0
23 87 -344 0
23 343 -344 0
87 343 -344 0
344 -23 -87 0
344 -23 -343 0
344 -87 -343 0
25 89 -345 0
25 344 -345 0
89 344 -345 0
345 -25 -89 0
345 -25 -344 0
345 -89 -344 0
27 91 -346 0
27 345 -346 0
91 345 -346 0
346 -27 -91 0
346 -27 -345 0
346 -91 -345 0
29 93 -347 0
93 346 -347 0
29 346 -347 0
-93 -29 347 0
347 -93 -346 0
347 -29 -346 0
31 95 -348 0
31 347 -348 0
95 347 -348 0
348 -31 -95 0
348 -31 -347 0
348 -95 -347 0
97 33 -349 0
97 348 -349 0
33 348 -349 0
-97 -33 349 0
349 -97 -348 0
349 -33 -348 0
99 35 -350 0
99 349 -350 0
35 349 -350 0
-99 -35 350 0
350 -99 -349 0
350 -35 -349 0
37 101 -351 0
37 350 -351 0
101 350 -351 0
351 -37 -101 0
351 -37 -350 0
351 -101 -350 0
103 39 -352 0
39 351 -352 0
103 351 -352 0
352 -39 -103 0
352 -39 -351 0
352 -103 -351 0
105 41 -353 0
41 352 -353 0
105 352 -353 0
353 -41 -105 0
353 -41 -352 0
353 -105 -352 0
43 107 -354 0
43 353 -354 0
107 353 -354 0
354 -43 -107 0
354 -43 -353 0
354 -107 -353 0
45 109 354 -355 0
-109 45 -354 -355 0
-45 109 -354 -355 0
-109 -45 354 -355 0
355 -45 -109 -354 0
-45 109 354 355 0
-109 45 354 355 0
45 109 -354 355 0
79 -81 -356 0
-79 81 -356 0
356 -79 -81 0
81 79 356 0
79 -81 -357 0
-79 81 -357 0
357 -79 -81 0
81 79 357 0
-17 357 358 0
-17 -79 -15 358 0
-79 -15 357 358 0
79 17 -358 0
79 17 -357 -358 0
79 -357 -358 0
79 17 15 -358 0
79 15 -357 -358 0
17 -357 -358 0
17 79 -357 -358 0
17 15 -357 -358 0
15 -357 -358 0
17 15 -358 0
-81 359 0
-79 359 0
81 79 -359 0
-83 359 -360 0
83 -359 -360 0
-83 -359 360 0
83 359 360 0
19 -360 -361 0
358 -360 -361 0
19 358 -361 0
-19 360 361 0
-358 360 361 0
361 -19 -358 0
-81 362 0
-79 362 0
-83 362 0
81 79 83 -362 0
-85 362 -363 0
85 -362 -363 0
-85 -362 363 0
85 362 363 0
21 -363 -364 0
21 361 -364 0
361 -363 -364 0
-21 363 364 0
364 -21 -361 0
-361 363 364 0
-81 365 0
-85 365 0
-79 365 0
-83 365 0
81 85 79 83 -365 0
-87 365 -366 0
87 -365 -366 0
-87 -365 366 0
87 365 366 0
23 -366 -367 0
23 364 -367 0
364 -366 -367 0
-23 366 367 0
367 -23 -364 0
-364 366 367 0
-81 368 0
-85 368 0
-87 368 0
-79 368 0
-83 368 0
81 85 87 79 83 -368 0
-89 368 -369 0
89 -368 -369 0
-89 -368 369 0
89 368 369 0
25 -369 -370 0
367 -369 -370 0
25 367 -370 0
-25 369 370 0
-367 369 370 0
370 -25 -367 0
-81 371 0
-85 371 0
-87 371 0
-79 371 0
-89 371 0
-83 371 0
81 85 87 79 89 83 -371 0
-91 371 -372 0
91 -371 -372 0
-91 -371 372 0
91 371 372 0
27 -372 -373 0
27 370 -373 0
370 -372 -373 0
-27 372 373 0
373 -27 -370 0
-370 372 373 0
-81 374 0
-85 374 0
-87 374 0
-79 374 0
-89 374 0
-91 374 0
-83 374 0
81 85 87 79 89 91 83 -374 0
-93 374 -375 0
93 -374 -375 0
-93 -374 375 0
93 374 375 0
29 -375 -376 0
373 -375 -376 0
29 373 -376 0
-29 375 376 0
-373 375 376 0
376 -29 -373 0
-81 377 0
-85 377 0
-87 377 0
-93 377 0
-79 377 0
-89 377 0
-91 377 0
-83 377 0
81 85 87 93 79 89 91 83 -377 0
-95 377 -378 0
95 -377 -378 0
-95 -377 378 0
95 377 378 0
31 -378 -379 0
31 376 -379 0
376 -378 -379 0
-31 378 379 0
379 -31 -376 0
-376 378 379 0
-81 380 0
-85 380 0
-95 380 0
-87 380 0
-93 380 0
-79 380 0
-89 380 0
-91 380 0
-83 380 0
81 85 95 87 93 79 89 91 83 -380 0
-97 380 -381 0
97 -380 -381 0
-97 -380 381 0
97 380 381 0
33 -381 -382 0
379 -381 -382 0
33 379 -382 0
-33 381 382 0
-379 381 382 0
382 -33 -379 0
-81 383 0
-85 383 0
-95 383 0
-97 383 0
-87 383 0
-93 383 0
-79 383 0
-89 383 0
-91 383 0
-83 383 0
81 85 95 97 87 93 79 89 91 83 -383 0
-99 383 -384 0
99 -383 -384 0
-99 -383 384 0
99 383 384 0
35 -384 -385 0
35 382 -385 0
382 -384 -385 0
-35 384 385 0
385 -35 -382 0
-382 384 385 0
-81 386 0
-85 386 0
-95 386 0
-97 386 0
-99 386 0
-87 386 0
-93 386 0
-79 386 0
-89 386 0
-91 386 0
-83 386 0
81 85 95 97 99 87 93 79 89 91 83 -386 0
-101 386 -387 0
101 -386 -387 0
-101 -386 387 0
101 386 387 0
37 -387 -388 0
385 -387 -388 0
37 385 -388 0
-37 387 388 0
-385 387 388 0
388 -37 -385 0
-81 389 0
-85 389 0
-95 389 0
-97 389 0
-99 389 0
-87 389 0
-101 389 0
-93 389 0
-79 389 0
-89 389 0
-91 389 0
-83 389 0
81 85 95 97 99 87 101 93 79 89 91 83 -389 0
-103 389 -390 0
103 -389 -390 0
-103 -389 390 0
103 389 390 0
39 -390 -391 0
39 388 -391 0
388 -390 -391 0
-39 390 391 0
391 -39 -388 0
-388 390 391 0
-81 392 0
-85 392 0
-95 392 0
-97 392 0
-99 392 0
-103 392 0
-87 392 0
-101 392 0
-93 392 0
-79 392 0
-89 392 0
-91 392 0
-83 392 0
81 85 95 97 99 103 87 101 93 79 89 91 83 -392 0
-105 392 -393 0
105 -392 -393 0
-105 -392 393 0
105 392 393 0
41 -393 -394 0
391 -393 -394 0
41 391 -394 0
-41 393 394 0
-391 393 394 0
394 -41 -391 0
-81 395 0
-85 395 0
-95 395 0
-97 395 0
-99 395 0
-103 395 0
-105 395 0
-87 395 0
-101 395 0
-93 395 0
-79 395 0
-89 395 0
-91 395 0
-83 395 0
81 85 95 97 99 103 105 87 101 93 79 89 91 83 -395 0
-107 395 -396 0
107 -395 -396 0
-107 -395 396 0
107 395 396 0
43 -396 -397 0
43 394 -397 0
394 -396 -397 0
-43 396 397 0
397 -43 -394 0
-394 396 397 0
-81 398 0
-85 398 0
-95 398 0
-97 398 0
-99 398 0
-103 398 0
-105 398 0
-87 398 0
-101 398 0
-107 398 0
-93 398 0
-79 398 0
-89 398 0
-91 398 0
-83 398 0
81 85 95 97 99 103 105 87 101 107 93 79 89 91 83 -398 0
-109 398 -399 0
109 -398 -399 0
-109 -398 399 0
109 398 399 0
45 397 399 -400 0
45 -397 -399 -400 0
-45 -397 399 -400 0
-45 397 -399 -400 0
-45 -397 -399 400 0
-45 397 399 400 0
45 397 -399 400 0
45 -397 399 400 0
-310 -400 -401 0
310 355 -401 0
-310 400 401 0
310 -355 401 0
355 -400 -401 0
-355 400 401 0
77 -401 -402 0
-77 401 -402 0
402 -77 -401 0
77 401 402 0
19 83 341 -403 0
-83 19 -341 -403 0
-19 83 -341 -403 0
-83 -19 341 -403 0
403 -19 -83 -341 0
-19 83 341 403 0
-83 19 341 403 0
19 83 -341 403 0
19 358 360 -404 0
19 -358 -360 -404 0
-19 -358 360 -404 0
-19 358 -360 -404 0
-19 -358 -360 404 0
-19 358 360 404 0
19 358 -360 404 0
19 -358 360 404 0
-310 -404 -405 0
310 403 -405 0
-310 404 405 0
310 -403 405 0
403 -404 -405 0
-403 404 405 0
51 -405 -406 0
-51 405 -406 0
406 -51 -405 0
51 405 406 0
15 407 0
79 407 0
-15 -79 -407 0
81 17 407 -408 0
17 -81 -407 -408 0
-17 81 -407 -408 0
-17 -81 407 -408 0
408 -17 -81 -407 0
-17 81 407 408 0
17 -81 407 408 0
81 17 -407 408 0
17 357 407 -409 0
17 -357 -407 -409 0
-17 -357 407 -409 0
-17 357 -407 -409 0
-17 -357 -407 409 0
-17 357 407 409 0
17 357 -407 409 0
17 -357 407 409 0
-310 409 -410 0
310 -408 -410 0
-310 -409 410 0
310 408 410 0
409 -408 -410 0
408 -409 410 0
49 -410 -411 0
-49 410 -411 0
411 -49 -410 0
49 410 411 0
31 95 347 -412 0
31 -95 -347 -412 0
95 -31 -347 -412 0
-31 -95 347 -412 0
412 -31 -95 -347 0
95 -31 347 412 0
31 -95 347 412 0
31 95 -347 412 0
31 376 378 -413 0
31 -376 -378 -413 0
-31 -376 378 -413 0
-31 376 -378 -413 0
-31 -376 -378 413 0
-31 376 378 413 0
31 376 -378 413 0
31 -376 378 413 0
-310 -413 -414 0
310 412 -414 0
-310 413 414 0
310 -412 414 0
412 -413 -414 0
-412 413 414 0
63 -414 -415 0
-63 414 -415 0
415 -63 -414 0
63 414 415 0
29 93 346 -416 0
29 -93 -346 -416 0
93 -29 -346 -416 0
-93 -29 346 -416 0
416 -29 -93 -346 0
93 -29 346 416 0
29 -93 346 416 0
29 93 -346 416 0
29 373 375 -417 0
29 -373 -375 -417 0
-29 -373 375 -417 0
-29 373 -375 -417 0
-29 -373 -375 417 0
-29 373 375 417 0
29 373 -375 417 0
29 -373 375 417 0
-310 -417 -418 0
310 416 -418 0
-310 417 418 0
310 -416 418 0
416 -417 -418 0
-416 417 418 0
61 -418 -419 0
-61 418 -419 0
419 -61 -418 0
61 418 419 0
99 35 349 -420 0
-99 35 -349 -420 0
-35 99 -349 -420 0
-99 -35 349 -420 0
420 -35 -99 -349 0
-35 99 349 420 0
-99 35 349 420 0
99 35 -349 420 0
35 382 384 -421 0
35 -382 -384 -421 0
-35 -382 384 -421 0
-35 382 -384 -421 0
-35 -382 -384 421 0
-35 382 384 421 0
35 382 -384 421 0
35 -382 384 421 0
-310 -421 -422 0
310 420 -422 0
-310 421 422 0
310 -420 422 0
420 -421 -422 0
-420 421 422 0
67 -422 -423 0
-67 422 -423 0
423 -67 -422 0
67 422 423 0
97 33 348 -424 0
-97 33 -348 -424 0
97 -33 -348 -424 0
-97 -33 348 -424 0
424 -33 -97 -348 0
97 -33 348 424 0
-97 33 348 424 0
97 33 -348 424 0
33 379 381 -425 0
33 -379 -381 -425 0
-33 -379 381 -425 0
-33 379 -381 -425 0
-33 -379 -381 425 0
-33 379 381 425 0
33 379 -381 425 0
33 -379 381 425 0
-310 -425 -426 0
310 424 -426 0
-310 425 426 0
310 -424 426 0
424 -425 -426 0
-424 425 426 0
65 -426 -427 0
-65 426 -427 0
427 -65 -426 0
65 426 427 0
27 91 345 -428 0
-91 27 -345 -428 0
-27 91 -345 -428 0
-27 -91 345 -428 0
428 -27 -91 -345 0
-27 91 345 428 0
-91 27 345 428 0
27 91 -345 428 0
27 370 372 -429 0
27 -370 -372 -429 0
-27 -370 372 -429 0
-27 370 -372 -429 0
-27 -370 -372 429 0
-27 370 372 429 0
27 370 -372 429 0
27 -370 372 429 0
-310 -429 -430 0
310 428 -430 0
-310 429 430 0
310 -428 430 0
428 -429 -430 0
-428 429 430 0
59 -430 -431 0
-59 430 -431 0
431 -59 -430 0
59 430 431 0
85 21 342 -432 0
21 -85 -342 -432 0
85 -21 -342 -432 0
-21 -85 342 -432 0
432 -21 -85 -342 0
85 -21 342 432 0
21 -85 342 432 0
85 21 -342 432 0
21 361 363 -433 0
21 -361 -363 -433 0
-21 -361 363 -433 0
-21 361 -363 -433 0
-21 -361 -363 433 0
-21 361 363 433 0
21 361 -363 433 0
21 -361 363 433 0
-310 -433 -434 0
310 432 -434 0
-310 433 434 0
310 -432 434 0
432 -433 -434 0
-432 433 434 0
53 -434 -435 0
-53 434 -435 0
435 -53 -434 0
53 434 435 0
25 89 344 -436 0
-89 25 -344 -436 0
-25 89 -344 -436 0
-25 -89 344 -436 0
436 -25 -89 -344 0
-25 89 344 436 0
-89 25 344 436 0
25 89 -344 436 0
25 367 369 -437 0
25 -367 -369 -437 0
-25 -367 369 -437 0
-25 367 -369 -437 0
-25 -367 -369 437 0
-25 367 369 437 0
25 367 -369 437 0
25 -367 369 437 0
-310 -437 -438 0
310 436 -438 0
-310 437 438 0
310 -436 438 0
436 -437 -438 0
-436 437 438 0
57 -438 -439 0
-57 438 -439 0
439 -57 -438 0
57 438 439 0
23 87 343 -440 0
23 -87 -343 -440 0
87 -23 -343 -440 0
-23 -87 343 -440 0
440 -23 -87 -343 0
87 -23 343 440 0
23 -87 343 440 0
23 87 -343 440 0
23 364 366 -441 0
23 -364 -366 -441 0
-23 -364 366 -441 0
-23 364 -366 -441 0
-23 -364 -366 441 0
-23 364 366 441 0
23 364 -366 441 0
23 -364 366 441 0
-310 -441 -442 0
310 440 -442 0
-310 441 442 0
310 -440 442 0
440 -441 -442 0
-440 441 442 0
55 -442 -443 0
-55 442 -443 0
443 -55 -442 0
55 442 443 0
103 39 351 -444 0
-103 39 -351 -444 0
-39 103 -351 -444 0
-39 -103 351 -444 0
444 -39 -103 -351 0
-39 103 351 444 0
-103 39 351 444 0
103 39 -351 444 0
39 388 390 -445 0
39 -388 -390 -445 0
-39 -388 390 -445 0
-39 388 -390 -445 0
-39 -388 -390 445 0
-39 388 390 445 0
39 388 -390 445 0
39 -388 390 445 0
-310 -445 -446 0
310 444 -446 0
-310 445 446 0
310 -444 446 0
444 -445 -446 0
-444 445 446 0
71 -446 -447 0
-71 446 -447 0
447 -71 -446 0
71 446 447 0
37 101 350 -448 0
37 -101 -350 -448 0
-37 101 -350 -448 0
-37 -101 350 -448 0
448 -37 -101 -350 0
-37 101 350 448 0
37 -101 350 448 0
37 101 -350 448 0
37 385 387 -449 0
37 -385 -387 -449 0
-37 -385 387 -449 0
-37 385 -387 -449 0
-37 -385 -387 449 0
-37 385 387 449 0
37 385 -387 449 0
37 -385 387 449 0
-310 -449 -450 0
310 448 -450 0
-310 449 450 0
310 -448 450 0
448 -449 -450 0
-448 449 450 0
69 -450 -451 0
-69 450 -451 0
451 -69 -450 0
69 450 451 0
43 107 353 -452 0
43 -107 -353 -452 0
-43 107 -353 -452 0
-43 -107 353 -452 0
452 -43 -107 -353 0
-43 107 353 452 0
43 -107 353 452 0
43 107 -353 452 0
43 394 396 -453 0
43 -394 -396 -453 0
-43 -394 396 -453 0
-43 394 -396 -453 0
-43 -394 -396 453 0
-43 394 396 453 0
43 394 -396 453 0
43 -394 396 453 0
-310 -453 -454 0
310 452 -454 0
-310 453 454 0
310 -452 454 0
452 -453 -454 0
-452 453 454 0
75 -454 -455 0
-75 454 -455 0
455 -75 -454 0
75 454 455 0
105 41 352 -456 0
41 -105 -352 -456 0
105 -41 -352 -456 0
-41 -105 352 -456 0
456 -41 -105 -352 0
105 -41 352 456 0
41 -105 352 456 0
105 41 -352 456 0
41 391 393 -457 0
41 -391 -393 -457 0
-41 -391 393 -457 0
-41 391 -393 -457 0
-41 -391 -393 457 0
-41 391 393 457 0
41 391 -393 457 0
41 -391 393 457 0
-310 -457 -458 0
310 456 -458 0
-310 457 458 0
310 -456 458 0
456 -457 -458 0
-456 457 458 0
73 -458 -459 0
-73 458 -459 0
459 -73 -458 0
73 458 459 0
-143 145 -460 0
-145 143 -460 0
-145 -143 460 0
145 143 460 0
-259 -460 -461 0
145 259 -461 0
-259 460 461 0
-145 259 461 0
145 -460 -461 0
-145 460 461 0
177 -461 -462 0
-177 461 -462 0
462 -177 -461 0
177 461 462 0
-9 463 0
259 463 0
9 -259 -463 0
-1 463 -464 0
1 -463 -464 0
-1 -463 464 0
1 463 464 0
145 465 0
143 465 0
-145 -143 -465 0
147 -465 -466 0
-147 465 -466 0
466 -147 -465 0
147 465 466 0
-259 466 -467 0
147 259 -467 0
-259 -466 467 0
-147 259 467 0
147 466 -467 0
-147 -466 467 0
179 -467 -468 0
-179 467 -468 0
468 -179 -467 0
179 467 468 0
79 47 15 -469 0
-79 15 -47 -469 0
-15 79 -47 -469 0
-79 -15 47 -469 0
-79 -15 -47 469 0
-15 79 47 469 0
-79 47 15 469 0
79 15 -47 469 0
143 175 259 -470 0
143 -175 -259 -470 0
-143 -175 259 -470 0
-143 175 -259 -470 0
-143 -175 -259 470 0
-143 175 259 470 0
143 175 -259 470 0
143 -175 259 470 0
-111 471 0
-470 471 0
-469 471 0
468 471 0
-464 471 0
462 471 0
459 471 0
455 471 0
451 471 0
447 471 0
443 471 0
439 471 0
435 471 0
431 471 0
427 471 0
423 471 0
419 471 0
415 471 0
411 471 0
406 471 0
402 471 0
-340 471 0
-338 471 0
-336 471 0
-334 471 0
-332 471 0
-330 471 0
-328 471 0
-326 471 0
-324 471 0
-322 471 0
-320 471 0
-318 471 0
-316 471 0
-314 471 0
-312 471 0
309 471 0
305 471 0
301 471 0
297 471 0
293 471 0
289 471 0
285 471 0
281 471 0
277 471 0
273 471 0
269 471 0
265 471 0
261 471 0
111 -261 -265 -269 -273 -277 -281 -285 -289 -293 -297 -301 -305 -309 312 314 316 318 320 322 324 326 328 330 332 334 336 338 340 -402 -406 -411 -415 -419 -423 -427 -431 -435 -439 -443 -447 -451 -455 -459 -462 464 -468 469 470 -471 0
-11 -471 0
11 -256 0
